p cnf 77 295
3 1 0
3 -2 0
-1 2 -3 0
-5 -4 0
-5 -2 0
4 2 5 0
-6 3 0
-6 -5 0
-3 5 6 0
6 7 -8 0
-6 -7 -8 0
6 -7 8 0
-6 7 8 0
-9 2 0
-9 4 0
-2 -4 9 0
-11 10 0
-11 -10 0
-11 4 -12 0
11 -4 -12 0
-11 -4 12 0
11 4 12 0
9 12 -13 0
-9 -12 -13 0
9 -12 13 0
-9 12 13 0
-14 13 0
-14 4 0
-13 -4 14 0
-15 8 0
-15 -14 0
-8 14 15 0
17 16 0
17 -11 0
-16 11 -17 0
15 -17 -18 0
-15 17 -18 0
15 17 18 0
-15 -17 18 0
20 -4 0
20 19 0
4 -19 -20 0
21 -1 0
21 1 0
23 -21 0
23 22 0
21 -22 -23 0
-24 10 0
-24 23 0
-10 -23 24 0
-25 -20 0
-25 -24 0
20 24 25 0
-18 -25 -26 0
18 25 -26 0
-18 25 26 0
18 -25 26 0
27 -6 0
27 4 0
6 -4 -27 0
-12 27 -28 0
12 -27 -28 0
-12 -27 28 0
12 27 28 0
-3 5 -29 0
3 -5 -29 0
-3 -5 29 0
3 5 29 0
-30 -28 0
-30 29 0
28 -29 30 0
-31 26 0
-31 -30 0
-26 30 31 0
-32 -4 0
-32 -27 0
4 27 32 0
-27 -16 -33 0
27 16 -33 0
-27 16 33 0
27 -16 33 0
34 7 0
34 19 0
-7 -19 -34 0
-35 -33 0
-35 -34 0
33 34 35 0
11 -3 -36 0
-11 3 -36 0
11 3 36 0
-11 -3 36 0
-37 27 0
-37 -1 0
-27 1 37 0
-38 -37 0
-38 -21 0
37 21 38 0
39 36 0
39 38 0
-36 -38 -39 0
40 -35 0
40 -39 0
35 39 -40 0
-41 -32 0
-41 40 0
32 -40 41 0
-42 -3 0
-42 11 0
3 -11 42 0
-13 3 -43 0
13 -3 -43 0
-13 -3 43 0
13 3 43 0
-13 43 -44 0
13 -43 -44 0
-13 -43 44 0
13 43 44 0
-45 42 0
-45 -44 0
-42 44 45 0
41 45 -46 0
-41 -45 -46 0
41 -45 46 0
-41 45 46 0
-37 47 -48 0
37 -47 -48 0
-37 -47 48 0
37 47 48 0
49 48 0
49 27 0
-48 -27 -49 0
-50 46 0
-50 -49 0
-46 49 50 0
51 -22 0
51 21 0
22 -21 -51 0
-52 16 0
-52 16 0
-16 52 0
-53 -3 0
-53 52 0
3 -52 53 0
-53 3 -54 0
53 -3 -54 0
-53 -3 54 0
53 3 54 0
55 -54 0
55 53 0
54 -53 -55 0
56 9 0
56 -5 0
-9 5 -56 0
56 -57 -58 0
-56 57 -58 0
56 57 58 0
-56 -57 58 0
-59 55 0
-59 58 0
-55 -58 59 0
60 -16 0
60 6 0
16 -6 -60 0
4 -60 -61 0
-4 60 -61 0
4 60 61 0
-4 -60 61 0
-62 59 0
-62 61 0
-59 -61 62 0
63 51 0
63 62 0
-51 -62 -63 0
-50 -63 -64 0
50 63 -64 0
-50 63 64 0
50 -63 64 0
21 10 -65 0
-21 -10 -65 0
21 -10 65 0
-21 10 65 0
64 -65 -66 0
-64 65 -66 0
64 65 66 0
-64 -65 66 0
-31 66 -67 0
31 -66 -67 0
-31 -66 67 0
31 66 67 0
-4 47 -68 0
4 -47 -68 0
-4 -47 68 0
4 47 68 0
2 68 -69 0
-2 -68 -69 0
2 -68 69 0
-2 68 69 0
-11 -2 -70 0
11 2 -70 0
-11 2 70 0
11 -2 70 0
-71 3 0
-71 1 0
-3 -1 71 0
70 -71 -72 0
-70 71 -72 0
70 71 72 0
-70 -71 72 0
69 -72 -73 0
-69 72 -73 0
69 72 73 0
-69 -72 73 0
-74 60 0
-74 11 0
-60 -11 74 0
13 -74 -75 0
-13 74 -75 0
13 74 75 0
-13 -74 75 0
73 75 -76 0
-73 -75 -76 0
73 -75 76 0
-73 75 76 0
-77 67 0
-77 -76 0
-67 76 77 0
-24 -67 -69 3 -39 0
73 62 58 -20 37 0
15 -61 0
58 44 5 -49 27 0
-37 52 29 -71 65 0
-31 -19 46 0
19 -46 35 0
-18 25 -9 0
-6 51 48 -67 -47 23 0
-55 -19 23 42 -69 0
75 54 43 -17 0
36 44 51 54 -42 33 0
33 -47 -8 -46 0
53 -61 -77 37 54 0
32 59 0
-74 18 -37 71 44 7 0
62 49 37 0
-24 16 -27 -8 28 0
-50 19 0
-17 26 30 2 0
-38 35 44 20 -47 0
6 -55 -66 -13 0
35 -72 75 33 -45 -65 0
-51 20 0
-38 -27 0
21 23 75 0
45 11 47 -48 -35 -60 0
-56 27 -13 72 -39 -43 0
12 48 -31 0
68 -37 -76 0
-45 43 -64 -77 0
22 9 3 0
3 -33 69 0
47 58 -39 -63 24 -35 0
67 -34 0
-26 72 -50 33 57 0
-62 46 1 0
65 -40 36 24 0
73 -19 -66 12 -62 0
-24 -56 10 62 -14 -6 0
-2 -9 -34 -65 -70 0
-38 -15 0
45 -17 0
-55 27 9 54 -37 -16 0
-50 -37 63 0
59 49 -55 -2 -15 13 0
67 65 21 0
18 42 61 -74 -54 0
-5 -71 -30 28 0
6 63 -29 -72 7 -46 0
-25 -21 -57 -61 -7 -27 0
-12 -36 -21 -55 -52 0
7 37 -62 -32 52 0
-65 -64 -2 0
-54 -10 0
-27 12 0
36 18 57 28 -68 0
13 61 9 0
-66 77 -55 15 28 -18 0
-59 20 -34 -60 0
-65 15 21 -22 0
-7 -70 0
43 60 0
-29 -48 -25 -27 -75 50 0
-45 34 69 0
65 -40 47 0
24 46 -18 0
-51 20 0
77 0
